c A SAT instance generated from a 3-CNF formula that had 24 clauses and 13 variables
p cnf 13 24
6 9 3 0
1 9 6 0
7 -1 -3 0
7 10 9 0
-7 6 -8 0
10 7 -6 0
13 -1 5 0
-10 -9 -7 0
9 1 12 0
-7 -10 1 0
9 12 -10 0
-13 -9 -11 0
11 6 10 0
-4 7 10 0
7 -1 5 0
13 1 -7 0
-1 5 -11 0
3 12 -6 0
-1 -5 6 0
2 10 -13 0
-12 9 4 0
-8 -12 4 0
9 6 -10 0
4 -5 13 0
